1, 18, 2, 3, 7, 8, 13, 11, 10, 12, 9, 5, 6, 4, 16, 14, 1
1, 17, 26, 36, 34, 23, 29, 27, 28, 24, 32, 31, 22, 53, 52, 15, 1
1, 19, 20, 38, 40, 41, 49, 48, 50, 51, 43, 42, 39, 35, 33, 1
1, 37, 47, 46, 45, 44, 25, 21, 30, 1
